NPROCS=0
This instance is clustered!
Gurobi Optimizer version 9.0.0 build v9.0.0rc2 (linux64)
Optimize a model with 26 rows, 170 columns and 338 nonzeros
Model fingerprint: 0x243b35d3
Variable types: 1 continuous, 169 integer (169 binary)
Coefficient statistics:
  Matrix range     [1e+00, 1e+00]
  Objective range  [1e+00, 1e+02]
  Bounds range     [1e+00, 1e+00]
  RHS range        [1e+00, 1e+00]
 done with super cut 0
Presolve removed 2 rows and 36 columns
Presolve time: 0.00s
Presolved: 24 rows, 134 columns, 266 nonzeros
Variable types: 1 continuous, 133 integer (133 binary)

Root relaxation: objective 2.395561e+02, 22 iterations, 0.00 seconds
 done with super cut 1

    Nodes    |    Current Node    |     Objective Bounds      |     Work
 Expl Unexpl |  Obj  Depth IntInf | Incumbent    BestBd   Gap | It/Node Time

     0     0  291.37749    0   22          -  291.37749      -     -    0s
 done with super cut 2
 done with super cut 3
H    0     0                     397.1883949  291.37749  26.6%     -    0s
 done with super cut 4
     0     0  295.12529    0   27  397.18839  295.12529  25.7%     -    0s
 done with super cut 5
 done with super cut 6
H    0     0                     334.1006563  295.12529  11.7%     -    0s
     0     0  295.54394    0   29  334.10066  295.54394  11.5%     -    0s
     0     0  295.54394    0   28  334.10066  295.54394  11.5%     -    0s
 done with super cut 7
 done with super cut 8
H    0     0                     323.1200156  295.54394  8.53%     -    0s
     0     0  297.85571    0   30  323.12002  297.85571  7.82%     -    0s
     0     0  300.19716    0   30  323.12002  300.19716  7.09%     -    0s
     0     0  300.23026    0   30  323.12002  300.23026  7.08%     -    0s
     0     0  300.58931    0   32  323.12002  300.58931  6.97%     -    0s
     0     0  300.65401    0   34  323.12002  300.65401  6.95%     -    0s
     0     0  300.95164    0   35  323.12002  300.95164  6.86%     -    0s
     0     0  300.96668    0   35  323.12002  300.96668  6.86%     -    0s
 done with super cut 9
     0     0  301.08060    0   36  323.12002  301.08060  6.82%     -    0s
     0     0  301.08060    0   28  323.12002  301.08060  6.82%     -    0s
     0     0  301.08060    0   29  323.12002  301.08060  6.82%     -    0s
     0     0  301.08060    0   30  323.12002  301.08060  6.82%     -    0s
     0     0  301.67225    0   32  323.12002  301.67225  6.64%     -    0s
     0     0  301.71974    0   32  323.12002  301.71974  6.62%     -    0s
     0     0  301.86098    0   32  323.12002  301.86098  6.58%     -    0s
     0     0  301.88953    0   33  323.12002  301.88953  6.57%     -    0s
     0     0  302.56044    0   28  323.12002  302.56044  6.36%     -    0s
     0     0  302.74244    0   30  323.12002  302.74244  6.31%     -    0s
     0     0  302.78028    0   32  323.12002  302.78028  6.29%     -    0s
     0     0  302.78159    0   31  323.12002  302.78159  6.29%     -    0s
     0     0  302.83508    0   31  323.12002  302.83508  6.28%     -    0s
     0     0  302.86105    0   34  323.12002  302.86105  6.27%     -    0s
 done with super cut 10
     0     2  302.86105    0   34  323.12002  302.86105  6.27%     -    1s

Cutting planes:
  Gomory: 5
  MIR: 2
  Zero half: 5
  RLT: 1
  Lazy constraints: 11

Explored 51 nodes (661 simplex iterations) in 1.11 seconds
Thread count was 12 (of 12 available processors)

Solution count 3: 323.12 334.101 397.188 

Optimal solution found (tolerance 1.00e-04)
Best objective 3.231200155956e+02, best bound 3.231200155956e+02, gap 0.0000%

User-callback calls 349, time in user-callback 1.01 sec
/projects/academic/josewalt/caigao/RRARP_BD/BendersDecomp/ret/model_outs/n_11_e_5_algo_4.out
 =====>>>>> Solution is written to file in <../ret/model_outs> !!!
===>> All Done!
